






























































































94 31 80 86 82 35 
2 49 95 27 109 102 
29 1 39 47 5 113 
59 56 74 61 11 52 
38 100 46 63 65 71 
92 10 112 18 84 17 
104 15 8 99 60 44 
48 114 28 76 101 55 
54 62 85 93 3 58 
70 90 41 42 22 87 97 
37 91 7 23 79 64 
73 83 89 12 50 43 
75 57 4 24 110 
103 88 105 53 78 19 
96 107 66 6 34 98 
13 45 111 51 81 108 
30 36 9 69 67 77 
68 21 25 32 33 16 
14 0 26 106 20 
40 72 
